
50
2476397

683 100072
92 100048
618 100021
842 100062
835 100004
516 100045
632 100056
370 100000
529 100065
108 100008
683 100065
601 100034
282 100002
379 100100
737 100006
444 100015
960 100051
972 100024
839 100053
92 100047
76 100058
289 100054
362 100029
705 100021
827 100070
563 100043
640 100052
574 100092
35 100000
527 100028
214 100056
417 100005
9 100076
656 100040
911 100031
69 100019
581 100097
24 100004
352 100082
160 100071
861 100090
729 100070
897 100035
218 100055
719 100093
700 100004
511 100085
917 100068
625 100019
283 100097
